NAME 
OBJSENSE MAX
ROWS
 N  OBJ
 L  packing[0]
 L  packing[1]
 L  packing[2]
 L  packing[3]
 L  packing[4]
 L  packing[5]
 L  packing[6]
 L  packing[7]
 L  packing[8]
 L  packing[9]
 L  packing[10]
 L  packing[11]
 L  packing[12]
 L  packing[13]
 L  packing[14]
 L  packing[15]
 L  packing[16]
 L  packing[17]
 L  packing[18]
 L  packing[19]
 L  packing[20]
 L  packing[21]
 L  packing[22]
 L  packing[23]
 L  packing[24]
 L  packing[25]
 L  packing[26]
 L  packing[27]
 L  packing[28]
 L  packing[29]
 L  packing[30]
 L  packing[31]
 L  packing[32]
 L  packing[33]
 L  packing[34]
 L  packing[35]
 L  packing[36]
 L  packing[37]
 L  packing[38]
 L  packing[39]
 L  packing[40]
 L  packing[41]
 L  packing[42]
 L  packing[43]
 L  packing[44]
 L  packing[45]
 L  packing[46]
 L  packing[47]
 L  packing[48]
 L  packing[49]
 L  R55     
COLUMNS
    MARKER    'MARKER'                 'INTORG'
    x[1]      OBJ       156
    x[1]      packing[1]  181
    x[1]      packing[2]  179
    x[1]      packing[3]  155
    x[1]      packing[4]  89
    x[1]      packing[5]  172
    x[1]      packing[6]  146
    x[1]      packing[7]  81
    x[1]      packing[8]  151
    x[1]      packing[9]  167
    x[1]      packing[10]  189
    x[1]      packing[11]  28
    x[1]      packing[13]  133
    x[1]      packing[14]  76
    x[1]      packing[15]  176
    x[1]      packing[16]  96
    x[1]      packing[17]  104
    x[1]      packing[18]  177
    x[1]      packing[19]  26
    x[1]      packing[20]  37
    x[1]      packing[21]  137
    x[1]      packing[22]  176
    x[1]      packing[24]  113
    x[1]      packing[26]  92
    x[1]      packing[27]  36
    x[1]      packing[28]  122
    x[1]      packing[29]  18
    x[1]      packing[30]  99
    x[1]      packing[31]  159
    x[1]      packing[32]  115
    x[1]      packing[34]  176
    x[1]      packing[35]  188
    x[1]      packing[36]  149
    x[1]      packing[37]  155
    x[1]      packing[38]  58
    x[1]      packing[39]  48
    x[1]      packing[41]  134
    x[1]      packing[42]  33
    x[1]      packing[43]  187
    x[1]      packing[44]  94
    x[1]      packing[45]  88
    x[1]      packing[46]  167
    x[1]      packing[47]  86
    x[1]      packing[48]  81
    x[1]      packing[49]  83
    x[1]      R55       1
    x[2]      OBJ       86
    x[2]      packing[0]  81
    x[2]      packing[1]  133
    x[2]      packing[2]  162
    x[2]      packing[4]  12
    x[2]      packing[5]  124
    x[2]      packing[6]  82
    x[2]      packing[7]  2
    x[2]      packing[8]  16
    x[2]      packing[9]  119
    x[2]      packing[10]  84
    x[2]      packing[11]  41
    x[2]      packing[12]  183
    x[2]      packing[13]  102
    x[2]      packing[14]  125
    x[2]      packing[15]  141
    x[2]      packing[17]  128
    x[2]      packing[20]  99
    x[2]      packing[22]  160
    x[2]      packing[23]  102
    x[2]      packing[24]  22
    x[2]      packing[27]  79
    x[2]      packing[28]  190
    x[2]      packing[29]  98
    x[2]      packing[30]  174
    x[2]      packing[31]  151
    x[2]      packing[32]  197
    x[2]      packing[33]  171
    x[2]      packing[34]  54
    x[2]      packing[37]  150
    x[2]      packing[38]  118
    x[2]      packing[39]  77
    x[2]      packing[40]  97
    x[2]      packing[41]  34
    x[2]      packing[42]  192
    x[2]      packing[43]  139
    x[2]      packing[44]  155
    x[2]      packing[45]  17
    x[2]      packing[46]  44
    x[2]      packing[48]  176
    x[2]      packing[49]  18
    x[3]      OBJ       122
    x[3]      packing[2]  174
    x[3]      packing[3]  192
    x[3]      packing[4]  82
    x[3]      packing[5]  139
    x[3]      packing[6]  14
    x[3]      packing[7]  61
    x[3]      packing[9]  105
    x[3]      packing[10]  143
    x[3]      packing[11]  73
    x[3]      packing[12]  186
    x[3]      packing[13]  117
    x[3]      packing[15]  114
    x[3]      packing[17]  34
    x[3]      packing[18]  156
    x[3]      packing[19]  191
    x[3]      packing[21]  44
    x[3]      packing[22]  187
    x[3]      packing[23]  116
    x[3]      packing[25]  60
    x[3]      packing[26]  143
    x[3]      packing[27]  167
    x[3]      packing[28]  59
    x[3]      packing[29]  128
    x[3]      packing[30]  109
    x[3]      packing[31]  110
    x[3]      packing[32]  195
    x[3]      packing[33]  85
    x[3]      packing[34]  111
    x[3]      packing[35]  148
    x[3]      packing[36]  120
    x[3]      packing[38]  127
    x[3]      packing[40]  184
    x[3]      packing[41]  181
    x[3]      packing[42]  111
    x[3]      packing[43]  176
    x[3]      packing[44]  167
    x[3]      packing[45]  123
    x[3]      packing[46]  161
    x[3]      packing[47]  23
    x[3]      packing[48]  189
    x[3]      packing[49]  24
    x[4]      OBJ       19
    x[4]      packing[0]  107
    x[4]      packing[1]  22
    x[4]      packing[2]  39
    x[4]      packing[4]  163
    x[4]      packing[7]  192
    x[4]      packing[8]  77
    x[4]      packing[9]  28
    x[4]      packing[11]  156
    x[4]      packing[12]  147
    x[4]      packing[13]  164
    x[4]      packing[15]  24
    x[4]      packing[16]  108
    x[4]      packing[17]  70
    x[4]      packing[19]  59
    x[4]      packing[20]  30
    x[4]      packing[21]  82
    x[4]      packing[22]  82
    x[4]      packing[23]  112
    x[4]      packing[25]  93
    x[4]      packing[26]  99
    x[4]      packing[27]  172
    x[4]      packing[28]  189
    x[4]      packing[29]  158
    x[4]      packing[31]  136
    x[4]      packing[32]  185
    x[4]      packing[33]  117
    x[4]      packing[34]  156
    x[4]      packing[35]  41
    x[4]      packing[37]  82
    x[4]      packing[38]  148
    x[4]      packing[39]  26
    x[4]      packing[41]  194
    x[4]      packing[42]  14
    x[4]      packing[43]  179
    x[4]      packing[46]  159
    x[4]      packing[47]  133
    x[4]      packing[48]  149
    x[5]      OBJ       34
    x[5]      packing[0]  106
    x[5]      packing[1]  159
    x[5]      packing[2]  128
    x[5]      packing[3]  104
    x[5]      packing[4]  198
    x[5]      packing[5]  134
    x[5]      packing[7]  13
    x[5]      packing[8]  106
    x[5]      packing[11]  152
    x[5]      packing[12]  38
    x[5]      packing[13]  197
    x[5]      packing[15]  37
    x[5]      packing[16]  108
    x[5]      packing[17]  46
    x[5]      packing[19]  94
    x[5]      packing[20]  187
    x[5]      packing[21]  179
    x[5]      packing[22]  120
    x[5]      packing[23]  4
    x[5]      packing[24]  9
    x[5]      packing[25]  156
    x[5]      packing[27]  163
    x[5]      packing[30]  42
    x[5]      packing[31]  39
    x[5]      packing[33]  38
    x[5]      packing[34]  98
    x[5]      packing[36]  148
    x[5]      packing[37]  112
    x[5]      packing[38]  84
    x[5]      packing[40]  155
    x[5]      packing[41]  120
    x[5]      packing[42]  168
    x[5]      packing[44]  89
    x[5]      packing[45]  38
    x[5]      packing[47]  146
    x[5]      packing[48]  66
    x[5]      packing[49]  53
    x[6]      OBJ       189
    x[6]      packing[0]  136
    x[6]      packing[1]  114
    x[6]      packing[2]  190
    x[6]      packing[3]  6
    x[6]      packing[4]  45
    x[6]      packing[6]  54
    x[6]      packing[7]  170
    x[6]      packing[8]  88
    x[6]      packing[9]  21
    x[6]      packing[10]  132
    x[6]      packing[12]  106
    x[6]      packing[13]  44
    x[6]      packing[14]  178
    x[6]      packing[15]  48
    x[6]      packing[17]  5
    x[6]      packing[18]  78
    x[6]      packing[19]  192
    x[6]      packing[20]  73
    x[6]      packing[21]  93
    x[6]      packing[22]  195
    x[6]      packing[25]  75
    x[6]      packing[28]  23
    x[6]      packing[29]  26
    x[6]      packing[30]  56
    x[6]      packing[31]  4
    x[6]      packing[33]  174
    x[6]      packing[35]  36
    x[6]      packing[36]  63
    x[6]      packing[37]  112
    x[6]      packing[38]  122
    x[6]      packing[39]  180
    x[6]      packing[40]  21
    x[6]      packing[45]  108
    x[6]      packing[46]  76
    x[6]      packing[47]  171
    x[6]      packing[48]  191
    x[6]      packing[49]  97
    x[6]      R55       1
    x[7]      OBJ       76
    x[7]      packing[0]  167
    x[7]      packing[1]  156
    x[7]      packing[2]  197
    x[7]      packing[3]  130
    x[7]      packing[5]  4
    x[7]      packing[8]  127
    x[7]      packing[9]  121
    x[7]      packing[10]  50
    x[7]      packing[11]  46
    x[7]      packing[13]  35
    x[7]      packing[15]  70
    x[7]      packing[17]  81
    x[7]      packing[18]  167
    x[7]      packing[19]  92
    x[7]      packing[20]  16
    x[7]      packing[21]  151
    x[7]      packing[24]  99
    x[7]      packing[25]  141
    x[7]      packing[26]  58
    x[7]      packing[30]  149
    x[7]      packing[31]  166
    x[7]      packing[32]  189
    x[7]      packing[33]  165
    x[7]      packing[34]  78
    x[7]      packing[35]  94
    x[7]      packing[36]  30
    x[7]      packing[37]  195
    x[7]      packing[38]  24
    x[7]      packing[39]  128
    x[7]      packing[41]  103
    x[7]      packing[43]  24
    x[7]      packing[44]  16
    x[7]      packing[45]  142
    x[7]      packing[46]  83
    x[7]      packing[49]  104
    x[8]      OBJ       145
    x[8]      packing[0]  70
    x[8]      packing[1]  161
    x[8]      packing[2]  74
    x[8]      packing[3]  114
    x[8]      packing[4]  171
    x[8]      packing[5]  167
    x[8]      packing[7]  93
    x[8]      packing[8]  61
    x[8]      packing[10]  154
    x[8]      packing[11]  74
    x[8]      packing[12]  122
    x[8]      packing[14]  137
    x[8]      packing[15]  53
    x[8]      packing[16]  172
    x[8]      packing[17]  76
    x[8]      packing[18]  154
    x[8]      packing[19]  172
    x[8]      packing[20]  78
    x[8]      packing[22]  182
    x[8]      packing[24]  111
    x[8]      packing[26]  154
    x[8]      packing[27]  94
    x[8]      packing[29]  114
    x[8]      packing[30]  195
    x[8]      packing[31]  190
    x[8]      packing[33]  174
    x[8]      packing[34]  177
    x[8]      packing[35]  79
    x[8]      packing[36]  45
    x[8]      packing[37]  56
    x[8]      packing[38]  159
    x[8]      packing[39]  47
    x[8]      packing[40]  72
    x[8]      packing[41]  162
    x[8]      packing[42]  175
    x[8]      packing[43]  109
    x[8]      packing[44]  110
    x[8]      packing[45]  169
    x[8]      packing[47]  97
    x[8]      packing[48]  85
    x[8]      packing[49]  8
    x[9]      OBJ       116
    x[9]      packing[0]  92
    x[9]      packing[1]  86
    x[9]      packing[3]  137
    x[9]      packing[4]  81
    x[9]      packing[5]  8
    x[9]      packing[7]  183
    x[9]      packing[8]  133
    x[9]      packing[9]  6
    x[9]      packing[10]  42
    x[9]      packing[12]  122
    x[9]      packing[13]  45
    x[9]      packing[15]  134
    x[9]      packing[17]  69
    x[9]      packing[18]  54
    x[9]      packing[19]  59
    x[9]      packing[21]  27
    x[9]      packing[22]  130
    x[9]      packing[23]  77
    x[9]      packing[24]  85
    x[9]      packing[25]  174
    x[9]      packing[28]  152
    x[9]      packing[30]  167
    x[9]      packing[32]  4
    x[9]      packing[33]  57
    x[9]      packing[35]  125
    x[9]      packing[36]  22
    x[9]      packing[39]  185
    x[9]      packing[40]  19
    x[9]      packing[41]  2
    x[9]      packing[43]  48
    x[9]      packing[44]  8
    x[9]      packing[46]  15
    x[9]      packing[48]  97
    x[9]      packing[49]  26
    x[9]      R55       1
    x[10]     OBJ       164
    x[10]     packing[0]  166
    x[10]     packing[1]  141
    x[10]     packing[2]  3
    x[10]     packing[4]  20
    x[10]     packing[6]  117
    x[10]     packing[7]  1
    x[10]     packing[8]  67
    x[10]     packing[9]  14
    x[10]     packing[10]  104
    x[10]     packing[12]  157
    x[10]     packing[13]  82
    x[10]     packing[16]  94
    x[10]     packing[17]  99
    x[10]     packing[18]  63
    x[10]     packing[19]  97
    x[10]     packing[20]  137
    x[10]     packing[21]  97
    x[10]     packing[22]  130
    x[10]     packing[23]  90
    x[10]     packing[25]  67
    x[10]     packing[26]  140
    x[10]     packing[27]  162
    x[10]     packing[28]  121
    x[10]     packing[30]  12
    x[10]     packing[32]  152
    x[10]     packing[33]  18
    x[10]     packing[36]  24
    x[10]     packing[37]  104
    x[10]     packing[38]  155
    x[10]     packing[39]  141
    x[10]     packing[40]  32
    x[10]     packing[41]  127
    x[10]     packing[42]  10
    x[10]     packing[43]  106
    x[10]     packing[45]  198
    x[10]     packing[46]  98
    x[10]     packing[47]  135
    x[10]     packing[48]  199
    x[10]     packing[49]  67
    x[10]     R55       1
    x[11]     OBJ       126
    x[11]     packing[0]  90
    x[11]     packing[1]  3
    x[11]     packing[2]  176
    x[11]     packing[4]  103
    x[11]     packing[5]  31
    x[11]     packing[6]  169
    x[11]     packing[7]  85
    x[11]     packing[10]  199
    x[11]     packing[11]  163
    x[11]     packing[12]  2
    x[11]     packing[13]  196
    x[11]     packing[14]  82
    x[11]     packing[15]  180
    x[11]     packing[16]  119
    x[11]     packing[17]  47
    x[11]     packing[18]  60
    x[11]     packing[19]  66
    x[11]     packing[21]  29
    x[11]     packing[24]  140
    x[11]     packing[25]  108
    x[11]     packing[28]  9
    x[11]     packing[29]  118
    x[11]     packing[31]  101
    x[11]     packing[33]  37
    x[11]     packing[35]  177
    x[11]     packing[37]  141
    x[11]     packing[38]  158
    x[11]     packing[39]  181
    x[11]     packing[41]  158
    x[11]     packing[42]  71
    x[11]     packing[43]  189
    x[11]     packing[45]  105
    x[11]     packing[46]  194
    x[11]     packing[47]  80
    x[11]     packing[48]  93
    x[11]     packing[49]  148
    x[12]     OBJ       29
    x[12]     packing[0]  128
    x[12]     packing[2]  174
    x[12]     packing[3]  116
    x[12]     packing[4]  128
    x[12]     packing[6]  186
    x[12]     packing[7]  197
    x[12]     packing[9]  185
    x[12]     packing[10]  94
    x[12]     packing[11]  169
    x[12]     packing[12]  63
    x[12]     packing[13]  184
    x[12]     packing[15]  30
    x[12]     packing[17]  104
    x[12]     packing[18]  103
    x[12]     packing[19]  97
    x[12]     packing[21]  71
    x[12]     packing[23]  82
    x[12]     packing[24]  134
    x[12]     packing[25]  155
    x[12]     packing[26]  158
    x[12]     packing[28]  66
    x[12]     packing[29]  1
    x[12]     packing[30]  193
    x[12]     packing[31]  74
    x[12]     packing[32]  170
    x[12]     packing[36]  10
    x[12]     packing[39]  65
    x[12]     packing[40]  58
    x[12]     packing[42]  77
    x[12]     packing[43]  8
    x[12]     packing[44]  65
    x[12]     packing[45]  17
    x[12]     packing[46]  43
    x[12]     packing[47]  124
    x[12]     packing[48]  107
    x[13]     OBJ       197
    x[13]     packing[0]  166
    x[13]     packing[1]  172
    x[13]     packing[3]  137
    x[13]     packing[4]  127
    x[13]     packing[5]  94
    x[13]     packing[6]  106
    x[13]     packing[7]  140
    x[13]     packing[8]  116
    x[13]     packing[9]  194
    x[13]     packing[12]  7
    x[13]     packing[13]  190
    x[13]     packing[14]  162
    x[13]     packing[16]  115
    x[13]     packing[17]  52
    x[13]     packing[19]  148
    x[13]     packing[20]  157
    x[13]     packing[22]  110
    x[13]     packing[23]  21
    x[13]     packing[24]  25
    x[13]     packing[25]  61
    x[13]     packing[26]  190
    x[13]     packing[28]  30
    x[13]     packing[29]  131
    x[13]     packing[31]  78
    x[13]     packing[32]  130
    x[13]     packing[33]  121
    x[13]     packing[35]  123
    x[13]     packing[37]  70
    x[13]     packing[39]  152
    x[13]     packing[40]  47
    x[13]     packing[41]  41
    x[13]     packing[42]  50
    x[13]     packing[43]  28
    x[13]     packing[44]  21
    x[13]     packing[45]  190
    x[13]     packing[47]  162
    x[13]     packing[48]  185
    x[13]     packing[49]  145
    x[13]     R55       1
    x[14]     OBJ       8
    x[14]     packing[0]  184
    x[14]     packing[1]  156
    x[14]     packing[2]  193
    x[14]     packing[4]  62
    x[14]     packing[6]  145
    x[14]     packing[7]  199
    x[14]     packing[8]  104
    x[14]     packing[10]  80
    x[14]     packing[11]  28
    x[14]     packing[13]  54
    x[14]     packing[14]  150
    x[14]     packing[15]  51
    x[14]     packing[17]  80
    x[14]     packing[19]  89
    x[14]     packing[20]  155
    x[14]     packing[22]  130
    x[14]     packing[24]  181
    x[14]     packing[25]  118
    x[14]     packing[26]  31
    x[14]     packing[27]  27
    x[14]     packing[28]  156
    x[14]     packing[29]  12
    x[14]     packing[31]  35
    x[14]     packing[33]  111
    x[14]     packing[34]  110
    x[14]     packing[35]  25
    x[14]     packing[36]  164
    x[14]     packing[37]  195
    x[14]     packing[38]  112
    x[14]     packing[39]  80
    x[14]     packing[40]  111
    x[14]     packing[41]  156
    x[14]     packing[42]  132
    x[14]     packing[43]  41
    x[14]     packing[44]  102
    x[14]     packing[46]  113
    x[14]     packing[47]  65
    x[14]     packing[48]  18
    x[14]     packing[49]  115
    x[15]     OBJ       169
    x[15]     packing[1]  151
    x[15]     packing[2]  99
    x[15]     packing[4]  133
    x[15]     packing[5]  147
    x[15]     packing[6]  3
    x[15]     packing[7]  85
    x[15]     packing[9]  154
    x[15]     packing[10]  115
    x[15]     packing[11]  36
    x[15]     packing[12]  149
    x[15]     packing[13]  187
    x[15]     packing[15]  46
    x[15]     packing[16]  55
    x[15]     packing[17]  19
    x[15]     packing[18]  64
    x[15]     packing[21]  153
    x[15]     packing[22]  101
    x[15]     packing[23]  108
    x[15]     packing[25]  103
    x[15]     packing[26]  121
    x[15]     packing[27]  3
    x[15]     packing[28]  195
    x[15]     packing[30]  60
    x[15]     packing[33]  84
    x[15]     packing[34]  23
    x[15]     packing[36]  94
    x[15]     packing[37]  98
    x[15]     packing[38]  174
    x[15]     packing[39]  32
    x[15]     packing[41]  68
    x[15]     packing[42]  8
    x[15]     packing[43]  160
    x[15]     packing[44]  89
    x[15]     packing[45]  65
    x[15]     packing[46]  173
    x[15]     packing[47]  99
    x[15]     packing[48]  12
    x[15]     packing[49]  12
    x[15]     R55       1
    x[16]     OBJ       61
    x[16]     packing[1]  112
    x[16]     packing[3]  163
    x[16]     packing[4]  7
    x[16]     packing[5]  166
    x[16]     packing[7]  60
    x[16]     packing[8]  44
    x[16]     packing[9]  111
    x[16]     packing[10]  73
    x[16]     packing[11]  197
    x[16]     packing[12]  13
    x[16]     packing[13]  4
    x[16]     packing[14]  68
    x[16]     packing[15]  168
    x[16]     packing[16]  195
    x[16]     packing[17]  44
    x[16]     packing[20]  44
    x[16]     packing[21]  104
    x[16]     packing[22]  102
    x[16]     packing[23]  42
    x[16]     packing[24]  182
    x[16]     packing[25]  199
    x[16]     packing[26]  166
    x[16]     packing[27]  16
    x[16]     packing[28]  4
    x[16]     packing[30]  154
    x[16]     packing[31]  84
    x[16]     packing[33]  13
    x[16]     packing[34]  155
    x[16]     packing[36]  170
    x[16]     packing[38]  55
    x[16]     packing[40]  2
    x[16]     packing[41]  95
    x[16]     packing[42]  179
    x[16]     packing[43]  134
    x[16]     packing[44]  5
    x[16]     packing[45]  181
    x[16]     packing[46]  162
    x[16]     packing[47]  97
    x[17]     OBJ       33
    x[17]     packing[0]  8
    x[17]     packing[1]  149
    x[17]     packing[2]  18
    x[17]     packing[4]  186
    x[17]     packing[5]  5
    x[17]     packing[6]  139
    x[17]     packing[7]  4
    x[17]     packing[8]  7
    x[17]     packing[12]  67
    x[17]     packing[14]  133
    x[17]     packing[15]  20
    x[17]     packing[16]  138
    x[17]     packing[17]  168
    x[17]     packing[18]  24
    x[17]     packing[20]  10
    x[17]     packing[21]  145
    x[17]     packing[22]  95
    x[17]     packing[23]  170
    x[17]     packing[24]  122
    x[17]     packing[25]  6
    x[17]     packing[26]  199
    x[17]     packing[28]  192
    x[17]     packing[29]  63
    x[17]     packing[31]  92
    x[17]     packing[32]  175
    x[17]     packing[33]  34
    x[17]     packing[34]  150
    x[17]     packing[35]  2
    x[17]     packing[37]  20
    x[17]     packing[39]  143
    x[17]     packing[40]  186
    x[17]     packing[41]  173
    x[17]     packing[44]  12
    x[17]     packing[45]  94
    x[17]     packing[46]  66
    x[17]     packing[47]  164
    x[17]     packing[49]  49
    x[18]     OBJ       115
    x[18]     packing[1]  184
    x[18]     packing[5]  33
    x[18]     packing[7]  153
    x[18]     packing[8]  88
    x[18]     packing[10]  112
    x[18]     packing[11]  25
    x[18]     packing[13]  20
    x[18]     packing[14]  153
    x[18]     packing[16]  153
    x[18]     packing[17]  173
    x[18]     packing[18]  92
    x[18]     packing[19]  115
    x[18]     packing[20]  199
    x[18]     packing[23]  184
    x[18]     packing[24]  112
    x[18]     packing[26]  117
    x[18]     packing[27]  45
    x[18]     packing[28]  189
    x[18]     packing[29]  138
    x[18]     packing[30]  142
    x[18]     packing[31]  56
    x[18]     packing[32]  149
    x[18]     packing[33]  82
    x[18]     packing[35]  62
    x[18]     packing[36]  124
    x[18]     packing[39]  196
    x[18]     packing[40]  129
    x[18]     packing[41]  102
    x[18]     packing[42]  131
    x[18]     packing[43]  40
    x[18]     packing[45]  103
    x[18]     packing[48]  114
    x[19]     OBJ       154
    x[19]     packing[0]  27
    x[19]     packing[2]  179
    x[19]     packing[3]  116
    x[19]     packing[4]  107
    x[19]     packing[6]  148
    x[19]     packing[7]  7
    x[19]     packing[8]  49
    x[19]     packing[9]  133
    x[19]     packing[10]  108
    x[19]     packing[11]  83
    x[19]     packing[12]  34
    x[19]     packing[14]  79
    x[19]     packing[15]  169
    x[19]     packing[18]  178
    x[19]     packing[19]  99
    x[19]     packing[20]  180
    x[19]     packing[21]  88
    x[19]     packing[22]  73
    x[19]     packing[23]  181
    x[19]     packing[26]  159
    x[19]     packing[27]  165
    x[19]     packing[28]  54
    x[19]     packing[29]  78
    x[19]     packing[30]  58
    x[19]     packing[31]  166
    x[19]     packing[32]  191
    x[19]     packing[33]  199
    x[19]     packing[34]  16
    x[19]     packing[35]  42
    x[19]     packing[36]  168
    x[19]     packing[37]  144
    x[19]     packing[38]  89
    x[19]     packing[39]  47
    x[19]     packing[40]  146
    x[19]     packing[41]  48
    x[19]     packing[42]  82
    x[19]     packing[43]  125
    x[19]     packing[44]  118
    x[19]     packing[46]  29
    x[19]     packing[47]  39
    x[20]     OBJ       154
    x[20]     packing[0]  89
    x[20]     packing[1]  130
    x[20]     packing[3]  190
    x[20]     packing[4]  76
    x[20]     packing[5]  93
    x[20]     packing[6]  10
    x[20]     packing[9]  100
    x[20]     packing[13]  83
    x[20]     packing[14]  161
    x[20]     packing[15]  5
    x[20]     packing[18]  137
    x[20]     packing[19]  120
    x[20]     packing[20]  104
    x[20]     packing[21]  8
    x[20]     packing[23]  195
    x[20]     packing[24]  157
    x[20]     packing[25]  140
    x[20]     packing[26]  64
    x[20]     packing[27]  37
    x[20]     packing[28]  67
    x[20]     packing[29]  35
    x[20]     packing[30]  79
    x[20]     packing[31]  174
    x[20]     packing[33]  153
    x[20]     packing[34]  154
    x[20]     packing[36]  190
    x[20]     packing[37]  5
    x[20]     packing[38]  43
    x[20]     packing[39]  52
    x[20]     packing[40]  63
    x[20]     packing[41]  185
    x[20]     packing[43]  81
    x[20]     packing[44]  173
    x[20]     packing[46]  8
    x[20]     packing[47]  187
    x[20]     packing[49]  142
    x[20]     R55       1
    MARKER    'MARKER'                 'INTEND'
RHS
    RHS1      packing[0]  809
    RHS1      packing[1]  1105
    RHS1      packing[2]  993
    RHS1      packing[3]  780
    RHS1      packing[4]  895
    RHS1      packing[5]  659
    RHS1      packing[6]  660
    RHS1      packing[7]  863
    RHS1      packing[8]  617
    RHS1      packing[9]  729
    RHS1      packing[10]  840
    RHS1      packing[11]  636
    RHS1      packing[12]  698
    RHS1      packing[13]  919
    RHS1      packing[14]  752
    RHS1      packing[15]  733
    RHS1      packing[16]  677
    RHS1      packing[17]  700
    RHS1      packing[18]  754
    RHS1      packing[19]  858
    RHS1      packing[20]  753
    RHS1      packing[21]  704
    RHS1      packing[22]  987
    RHS1      packing[23]  742
    RHS1      packing[24]  746
    RHS1      packing[25]  828
    RHS1      packing[26]  946
    RHS1      packing[27]  583
    RHS1      packing[28]  909
    RHS1      packing[29]  559
    RHS1      packing[30]  845
    RHS1      packing[31]  908
    RHS1      packing[32]  926
    RHS1      packing[33]  917
    RHS1      packing[34]  729
    RHS1      packing[35]  571
    RHS1      packing[36]  761
    RHS1      packing[37]  820
    RHS1      packing[38]  813
    RHS1      packing[39]  890
    RHS1      packing[40]  661
    RHS1      packing[41]  1042
    RHS1      packing[42]  717
    RHS1      packing[43]  887
    RHS1      packing[44]  612
    RHS1      packing[45]  819
    RHS1      packing[46]  796
    RHS1      packing[47]  904
    RHS1      packing[48]  881
    RHS1      packing[49]  546
    RHS1      R55       6
BOUNDS
 BV BND1      x[1]    
 BV BND1      x[2]    
 BV BND1      x[3]    
 BV BND1      x[4]    
 BV BND1      x[5]    
 BV BND1      x[6]    
 BV BND1      x[7]    
 BV BND1      x[8]    
 BV BND1      x[9]    
 BV BND1      x[10]   
 BV BND1      x[11]   
 BV BND1      x[12]   
 BV BND1      x[13]   
 BV BND1      x[14]   
 BV BND1      x[15]   
 BV BND1      x[16]   
 BV BND1      x[17]   
 BV BND1      x[18]   
 BV BND1      x[19]   
 BV BND1      x[20]   
ENDATA
